(set-logic HORN)
(declare-fun state (Int (Array Int Int) (Array Int Int) (Array Int Int) (Array Int Int) Int Int (Array Int Int) (Array Int Int) Int Int Int Int Int Int Int Int Int Int Int Int Bool Bool Bool Bool Bool Bool (Array Int Int)) Bool)
(assert (forall ((|A_40| Int) (|B_40| (Array Int Int)) (|C_40| (Array Int Int)) (|D_40| (Array Int Int)) (|E_40| (Array Int Int)) (|F_40| Int) (|G_40| Int) (|H_40| (Array Int Int)) (|I_40| (Array Int Int)) (|J_40| Int) (|K_40| Int) (|L_40| Int) (|M_40| Int) (|N_40| Int) (|O_40| Int) (|P_40| Int) (|Q_40| Int) (|R_40| Int) (|S_40| Int) (|T_40| Int) (|U_40| Int) (|W_20| Bool) (|.loc.6| Bool) (|.loc.7| Bool) (|.loc.8| Bool) (|.loc.9| Bool) (|.loc.10| Bool) (|W_0| (Array Int Int)) (|.x.869| Int) (|.x.867| (Array Int Int)) (|.x.865| Int) (|.x.863| (Array Int Int)) (|.x.859| Int) (|.x.861| (Array Int Int)) (|.x.860| (Array Int Int)) (|V_40| Bool) (|.x.870| Int) (|.x.871| Int) (|.x.872| Int) (|.x.874| Int) (|.loc.12| Bool) (|.x.875| Int) (|.x.873| Int) (|.x.878| Int) (|.loc.13| Bool) (|.loc.11| Bool) (|.x.879| Int) (|.x.877| Int) (|.x.876| Int) (|.x.862| (Array Int Int)) (|.loc.15| Bool) (|.loc.14| Bool) (|.x.868| Int) (|.x.864| Int) (|.x.866| (Array Int Int)) (|.xtv.1| (Array Int Int))) (=> (and (and (and (and (and .loc.6 (not .loc.7)) (not .loc.8)) (not .loc.9)) (not .loc.10)) (and (and (and (and (and (= D_40 E_40) (not W_20)) (= F_40 G_40)) (= J_40 K_40)) (= H_40 I_40)) (= B_40 C_40))) (state |A_40| |B_40| |C_40| |D_40| |E_40| |F_40| |G_40| |H_40| |I_40| |J_40| |K_40| |L_40| |M_40| |N_40| |O_40| |P_40| |Q_40| |R_40| |S_40| |T_40| |U_40| |W_20| |.loc.6| |.loc.7| |.loc.8| |.loc.9| |.loc.10| |W_0|))))
(assert (forall ((|A_40| Int) (|B_40| (Array Int Int)) (|C_40| (Array Int Int)) (|D_40| (Array Int Int)) (|E_40| (Array Int Int)) (|F_40| Int) (|G_40| Int) (|H_40| (Array Int Int)) (|I_40| (Array Int Int)) (|J_40| Int) (|K_40| Int) (|L_40| Int) (|M_40| Int) (|N_40| Int) (|O_40| Int) (|P_40| Int) (|Q_40| Int) (|R_40| Int) (|S_40| Int) (|T_40| Int) (|U_40| Int) (|W_20| Bool) (|.loc.6| Bool) (|.loc.7| Bool) (|.loc.8| Bool) (|.loc.9| Bool) (|.loc.10| Bool) (|W_0| (Array Int Int)) (|.x.869| Int) (|.x.867| (Array Int Int)) (|.x.865| Int) (|.x.863| (Array Int Int)) (|.x.859| Int) (|.x.861| (Array Int Int)) (|.x.860| (Array Int Int)) (|V_40| Bool) (|.x.870| Int) (|.x.871| Int) (|.x.872| Int) (|.x.874| Int) (|.loc.12| Bool) (|.x.875| Int) (|.x.873| Int) (|.x.878| Int) (|.loc.13| Bool) (|.loc.11| Bool) (|.x.879| Int) (|.x.877| Int) (|.x.876| Int) (|.x.862| (Array Int Int)) (|.loc.15| Bool) (|.loc.14| Bool) (|.x.868| Int) (|.x.864| Int) (|.x.866| (Array Int Int)) (|.xtv.1| (Array Int Int))) (=> (and (state |A_40| |B_40| |C_40| |D_40| |E_40| |F_40| |G_40| |H_40| |I_40| |J_40| |K_40| |L_40| |M_40| |N_40| |O_40| |P_40| |Q_40| |R_40| |S_40| |T_40| |U_40| |W_20| |.loc.6| |.loc.7| |.loc.8| |.loc.9| |.loc.10| |W_0|) (let ((.def_38 (not .loc.7))) (let ((.def_40 (not .loc.8))) (let ((.def_42 (not .loc.9))) (let ((.def_44 (not .loc.10))) (let ((.def_76 (= B_40 .x.860))) (let ((.def_80 (= L_40 .x.870))) (let ((.def_83 (= M_40 .x.871))) (let ((.def_86 (= N_40 .x.872))) (let ((.def_89 (= P_40 .x.874))) (let ((.def_91 (not .loc.6))) (let ((.def_102 (= W_20 V_40))) (let ((.def_110 (= O_40 0))) (let ((.def_114 (and .def_86 (and .def_83 (and .def_76 .def_80))))) (let ((.def_115 (and .def_89 .def_114))) (let ((.def_119 (not .loc.12))) (let ((.def_125 (= Q_40 .x.875))) (let ((.def_127 (= O_40 .x.873))) (let ((.def_130 (= T_40 .x.878))) (let ((.def_135 (not .loc.11))) (let ((.def_142 (select D_40 N_40))) (let ((.def_146 (<= 100000 U_40))) (let ((.def_163 (not .loc.13))) (let ((.def_168 (= U_40 .x.879))) (let ((.def_170 (= S_40 .x.877))) (let ((.def_180 (and .def_89 (and .def_114 .def_127)))) (let ((.def_196 (and .def_130 (and .def_170 (and .def_125 .def_180))))) (let ((.def_207 (and W_20 .def_76))) (let ((.def_216 (and .def_168 (and .def_130 (and .def_170 (and .def_125 (and .def_89 (and .def_127 (and .def_86 (and .def_83 (and .def_80 .def_207))))))))))) (let ((.def_227 (and .def_168 .def_196))) (let ((.def_228 (and .loc.7 .def_227))) (let ((.def_249 (and .def_38 (and .def_91 (and .loc.10 .def_227))))) (let ((.def_255 (<= 100000 R_40))) (let ((.def_256 (or W_20 .def_255))) (let ((.def_260 (= R_40 .x.876))) (let ((.def_262 (= D_40 .x.862))) (let ((.def_266 (+ M_40 (* 4 R_40)))) (let ((.def_275 (and (not .def_255) (= (+ R_40 (* (- 1) .x.876)) (- 1))))) (let ((.def_295 (and .def_125 (and .def_89 (and .def_127 (and .def_86 (and .def_83 (and .def_80 (and .def_76 .def_262))))))))) (let ((.def_299 (and .def_168 (and .def_130 (and .def_170 (and .def_260 .def_295)))))) (let ((.def_308 (not .loc.15))) (let ((.def_322 (and .def_168 (and .def_130 (and .def_170 (and .def_260 (and .def_125 (and .def_89 (and .def_127 (and .def_86 (and .def_83 (and .def_80 (and .def_207 .def_262))))))))))))) (let ((.def_323 (and .loc.8 .def_322))) (let ((.def_337 (and .loc.6 (and .def_168 (and .def_130 (and .def_170 .def_295)))))) (let ((.def_338 (and .loc.7 .def_337))) (let ((.def_339 (and .loc.8 .def_338))) (let ((.def_347 (= .x.876 0))) (let ((.def_348 (or W_20 .def_347))) (let ((.def_352 (not .loc.14))) (let ((.def_354 (and .loc.7 .def_322))) (let ((.def_355 (and .loc.8 .def_354))) (let ((.def_366 (and .loc.7 .def_299))) (let ((.def_367 (and .loc.8 .def_366))) (let ((.def_384 (and .loc.8 .def_228))) (let ((.def_396 (and .loc.8 .def_337))) (let ((.def_419 (and .loc.8 .def_299))) (let ((.def_438 (and .loc.8 .def_227))) (and (and (= K_40 .x.869) (and (= I_40 .x.867) (and (= G_40 .x.865) (and (= E_40 .x.863) (and (= A_40 .x.859) (= C_40 .x.861)))))) (or (and (or (or (or (or (or (or (or (or (or (or (or (or (or (or (or (or (or (or (or (or (or (or (or (or (or (or (or (and (or (and .def_42 (or (or (and (or (and (or (or (or (or (or (or (and (or (and (or (and (or (and (and (and (and (and (and .def_76 V_40) .def_80) .def_83) .def_86) .def_89) .def_91) (and (or W_20 (and (= .x.874 0) (= .x.860 (store B_40 N_40 0)))) (and (and .loc.6 (or V_40 (= .x.870 .x.874))) .def_102))) (and (and .loc.8 .def_38) .loc.12)) (and (or W_20 .def_110) (and .def_40 (and (and .def_102 (and .loc.7 (and .loc.6 .def_115))) .def_119)))) (and (and (and (and .def_125 .def_127) .def_130) .loc.13) .def_135)) (and (or W_20 (and (= .x.873 .x.878) (and (= .x.875 (select .def_142 (+ M_40 (* 4 U_40)))) (and (not .def_146) (= .x.878 (ite (= .x.875 48) 1 0)))))) (and (and .def_40 (and .def_102 (and .loc.12 (and .loc.11 (and .def_91 (and .loc.7 .def_115)))))) .def_163))) (and .loc.10 (and .def_168 .def_170))) (and (or V_40 (= (+ U_40 (* (- 1) .x.879)) (- 1))) (and .def_44 (and .def_163 (and .def_40 (and .def_102 (and .def_135 (and .loc.12 (and .def_38 (and .def_91 (and .def_130 .def_180))))))))))) (and (or W_20 (= .x.879 0)) (and .def_163 (and .def_40 (and .def_102 (and .def_135 (and .loc.12 (and .def_38 (and .loc.10 (and .loc.6 .def_196)))))))))) (and .def_40 (and .def_119 (and .def_102 (and .loc.13 (and .loc.11 (and .def_91 (and .loc.10 (and .loc.7 .def_216))))))))) (and (or W_20 .def_146) (and .def_40 (and .def_119 (and .def_102 (and .loc.13 (and .loc.11 (and .def_91 (and .loc.10 .def_228))))))))) (and .def_163 (and .def_40 (and .def_119 (and .def_102 (and .loc.11 (and .def_38 (and .def_91 (and .loc.10 .def_216))))))))) (and (and .def_163 (and .def_40 (and .def_119 (and .def_102 (and .loc.11 .def_249))))) .def_256)) (and .def_260 .def_262)) (and (or W_20 (and (= .x.862 (store D_40 N_40 (store .def_142 .def_266 49))) .def_275)) (and .def_163 (and .def_40 (and .def_119 (and .def_102 (and .def_135 .def_249))))))) .loc.15) (and (or W_20 (not .def_110)) (and (and .def_163 (and .def_40 (and .def_119 (and .def_102 (and .def_135 (and .loc.10 (and .loc.7 (and .loc.6 .def_299)))))))) .def_308))) (and .def_308 (and .def_163 (and .def_119 (and .def_102 (and .def_135 (and .def_38 (and .def_91 (and .loc.10 .def_323)))))))))) (and (and .def_44 (and .def_163 (and .def_119 (and .def_102 (and .def_135 (and .loc.15 (and .loc.9 .def_339))))))) .def_348)) .def_352) (and .def_308 (and .def_44 (and .def_102 (and .loc.14 (and .loc.13 (and .loc.12 (and .loc.11 (and .def_91 (and .loc.9 .def_355)))))))))) (and .def_308 (and .def_256 (and .def_44 (and .def_102 (and .loc.14 (and .loc.13 (and .loc.12 (and .loc.11 (and .def_91 (and .loc.9 .def_367))))))))))) (and (or W_20 (and .def_275 (= .x.862 (store D_40 N_40 (store .def_142 .def_266 48))))) (and .def_308 (and .def_44 (and .def_102 (and .def_135 (and .loc.14 (and .loc.13 (and .loc.12 (and .def_91 (and .loc.9 .def_384))))))))))) (and .def_348 (and .def_308 (and .def_44 (and .def_102 (and .def_135 (and .loc.14 (and .loc.13 (and .loc.12 (and .def_38 (and .loc.9 .def_396))))))))))) (and .def_308 (and .def_44 (and .def_119 (and .def_102 (and .loc.14 (and .loc.13 (and .loc.11 (and .def_38 (and .def_91 (and .loc.9 .def_323))))))))))) (and .def_308 (and .def_256 (and .def_44 (and .def_119 (and .def_102 (and .loc.14 (and .loc.13 (and .loc.11 (and .def_38 (and .def_91 (and .loc.9 .def_419)))))))))))) (and (or W_20 (and .def_275 (= .x.862 (store D_40 N_40 (store .def_142 .def_266 47))))) (and .def_308 (and .def_44 (and .def_119 (and .def_102 (and .def_135 (and .loc.14 (and .loc.13 (and .def_38 (and .def_91 (and .loc.9 .def_438)))))))))))) (and .def_348 (and .def_308 (and .def_44 (and .def_40 (and .def_119 (and .def_102 (and .def_135 (and .loc.14 (and .loc.13 (and .loc.9 .def_338))))))))))) (and .def_308 (and .def_44 (and .def_163 (and .def_40 (and .def_102 (and .loc.14 (and .loc.12 (and .loc.11 (and .def_91 (and .loc.9 .def_354))))))))))) (and .def_308 (and .def_256 (and .def_44 (and .def_163 (and .def_40 (and .def_102 (and .loc.14 (and .loc.12 (and .loc.11 (and .def_91 (and .loc.9 .def_366)))))))))))) (and (or W_20 (and .def_275 (= .x.862 (store D_40 N_40 (store .def_142 .def_266 46))))) (and .def_308 (and .def_44 (and .def_163 (and .def_40 (and .def_102 (and .def_135 (and .loc.14 (and .loc.12 (and .def_91 (and .loc.9 .def_228)))))))))))) (and .def_348 (and .def_308 (and .def_44 (and .def_163 (and .def_40 (and .def_102 (and .def_135 (and .loc.14 (and .loc.12 (and .def_38 (and .loc.9 .def_337)))))))))))) (and .def_308 (and .def_44 (and .def_163 (and .def_40 (and .def_119 (and .def_102 (and .loc.14 (and .loc.11 (and .def_38 (and .def_91 (and .loc.9 .def_322)))))))))))) (and .def_308 (and .def_256 (and .def_44 (and .def_163 (and .def_40 (and .def_119 (and .def_102 (and .loc.14 (and .loc.11 (and .def_38 (and .def_91 (and .loc.9 .def_299))))))))))))) (and (or W_20 (and .def_275 (= .x.862 (store D_40 N_40 (store .def_142 .def_266 45))))) (and .def_308 (and .def_44 (and .def_163 (and .def_40 (and .def_119 (and .def_102 (and .def_135 (and .loc.14 (and .def_38 (and .def_91 (and .loc.9 .def_227))))))))))))) (and .def_348 (and .def_308 (and .def_44 (and .def_163 (and .def_119 (and .def_102 (and .def_135 (and .loc.14 (and .def_42 .def_339)))))))))) (and .def_308 (and .def_44 (and .def_102 (and .def_352 (and .loc.13 (and .loc.12 (and .loc.11 (and .def_42 (and .def_91 .def_355)))))))))) (and .def_308 (and .def_256 (and .def_44 (and .def_102 (and .def_352 (and .loc.13 (and .loc.12 (and .loc.11 (and .def_42 (and .def_91 .def_367))))))))))) (and (or W_20 (and .def_275 (= .x.862 (store D_40 N_40 (store .def_142 .def_266 44))))) (and .def_308 (and .def_44 (and .def_102 (and .def_352 (and .def_135 (and .loc.13 (and .loc.12 (and .def_42 (and .def_91 .def_384))))))))))) (and .def_348 (and .def_308 (and .def_44 (and .def_102 (and .def_352 (and .def_135 (and .loc.13 (and .loc.12 (and .def_42 (and .def_38 .def_396))))))))))) (and .def_308 (and .def_44 (and .def_119 (and .def_102 (and .def_352 (and .loc.13 (and .loc.11 (and .def_42 (and .def_38 (and .def_91 .def_323))))))))))) (and .def_308 (and .def_256 (and .def_44 (and .def_119 (and .def_102 (and .def_352 (and .loc.13 (and .loc.11 (and .def_42 (and .def_38 (and .def_91 .def_419)))))))))))) (and (or W_20 (and .def_275 (= .x.862 (store D_40 N_40 (store .def_142 .def_266 43))))) (and .def_308 (and .def_44 (and .def_119 (and .def_102 (and .def_352 (and .def_135 (and .loc.13 (and .def_42 (and .def_38 (and .def_91 .def_438)))))))))))) (and .def_348 (and .def_308 (and .def_44 (and .def_40 (and .def_119 (and .def_102 (and .def_352 (and .def_135 (and .loc.13 (and .def_42 .def_338))))))))))) (and .def_308 (and .def_44 (and .def_163 (and .def_40 (and .def_102 (and .def_352 (and .loc.12 (and .loc.11 (and .def_42 (and .def_91 .def_354))))))))))) (and .def_308 (and .def_256 (and .def_44 (and .def_163 (and .def_40 (and .def_102 (and .def_352 (and .loc.12 (and .loc.11 (and .def_42 (and .def_91 .def_366)))))))))))) (and (or W_20 (and .def_275 (= .x.862 (store D_40 N_40 (store .def_142 .def_266 42))))) (and .def_308 (and .def_44 (and .def_163 (and .def_40 (and .def_102 (and .def_352 (and .def_135 (and .loc.12 (and .def_42 (and .def_91 .def_228)))))))))))) (and (= J_40 .x.868) (and (= F_40 .x.864) (= H_40 .x.866)))) (and (or W_20 (and (and (= .x.868 0) (= .x.864 0)) (= W_0 (store B_40 0 0)))) (and (or V_40 (and (and (and (and (and (and .def_347 (not (<= .x.859 .x.872))) (not (= .x.872 0))) (= .x.871 0)) (= (select W_0 .x.872) 0)) (= .x.866 (store H_40 .x.872 400000))) (= .x.860 (store W_0 .x.872 1)))) (and .def_308 (and .def_44 (and .def_163 (and .def_40 (and .def_102 (and .def_352 (and .def_135 (and .loc.12 (and .def_42 (and .def_38 (and .loc.6 (and .def_130 (and .def_127 (and .def_80 .def_262))))))))))))))))))))))))))))))))))))))))))))))))))))))))))))))))))))))))))) (state |.x.859| |.x.860| |.x.861| |.x.862| |.x.863| |.x.864| |.x.865| |.x.866| |.x.867| |.x.868| |.x.869| |.x.870| |.x.871| |.x.872| |.x.873| |.x.874| |.x.875| |.x.876| |.x.877| |.x.878| |.x.879| |V_40| |.loc.11| |.loc.12| |.loc.13| |.loc.14| |.loc.15| |.xtv.1|))))
(assert (forall ((|A_40| Int) (|B_40| (Array Int Int)) (|C_40| (Array Int Int)) (|D_40| (Array Int Int)) (|E_40| (Array Int Int)) (|F_40| Int) (|G_40| Int) (|H_40| (Array Int Int)) (|I_40| (Array Int Int)) (|J_40| Int) (|K_40| Int) (|L_40| Int) (|M_40| Int) (|N_40| Int) (|O_40| Int) (|P_40| Int) (|Q_40| Int) (|R_40| Int) (|S_40| Int) (|T_40| Int) (|U_40| Int) (|W_20| Bool) (|.loc.6| Bool) (|.loc.7| Bool) (|.loc.8| Bool) (|.loc.9| Bool) (|.loc.10| Bool) (|W_0| (Array Int Int)) (|.x.869| Int) (|.x.867| (Array Int Int)) (|.x.865| Int) (|.x.863| (Array Int Int)) (|.x.859| Int) (|.x.861| (Array Int Int)) (|.x.860| (Array Int Int)) (|V_40| Bool) (|.x.870| Int) (|.x.871| Int) (|.x.872| Int) (|.x.874| Int) (|.loc.12| Bool) (|.x.875| Int) (|.x.873| Int) (|.x.878| Int) (|.loc.13| Bool) (|.loc.11| Bool) (|.x.879| Int) (|.x.877| Int) (|.x.876| Int) (|.x.862| (Array Int Int)) (|.loc.15| Bool) (|.loc.14| Bool) (|.x.868| Int) (|.x.864| Int) (|.x.866| (Array Int Int)) (|.xtv.1| (Array Int Int))) (=> (state |A_40| |B_40| |C_40| |D_40| |E_40| |F_40| |G_40| |H_40| |I_40| |J_40| |K_40| |L_40| |M_40| |N_40| |O_40| |P_40| |Q_40| |R_40| |S_40| |T_40| |U_40| |W_20| |.loc.6| |.loc.7| |.loc.8| |.loc.9| |.loc.10| |W_0|) (not (and W_20 (and .loc.10 (and (not .loc.9) (and .loc.8 (and .loc.7 (not .loc.6))))))))))
(check-sat)
